630
638
700
634
561
613
673
624
532
584
657
646
666
615
566
654
665
545
707
557
574
584
727
562
666
731
612
609
627
639
670
606
655
613
551
584
583
677
736
548
594
629
656
577
633
654
575
444
544
640
691
575
712
557
619
570
558
621
597
582
633
630
568
563
599
538
552
658
687
577
751
529
609
545
663
617
718
575
565
660
637
639
692
577
596
692
603
670
642
553
542
722
603
631
532
702
564
599
764
601
